N = 10;
H = 5;
T = 2;

avail = array3d(1..N, 1..H, 1..T, [8, 10, 0, 2, 3, 10, 3, 7, 10, 0, 9, 1, 2, 1, 4, 0, 7, 6, 10, 5, 9, 1, 4, 6, 4, 3, 8, 9, 6, 1, 0, 9, 3, 8, 10, 8, 6, 10, 9, 10, 6, 9, 3, 0, 8, 0, 7, 4, 5, 0, 6, 3, 5, 2, 7, 0, 3, 9, 2, 0, 0, 4, 10, 1, 10, 1, 3, 0, 0, 9, 6, 4, 9, 5, 10, 0, 0, 3, 8, 8, 9, 4, 2, 6, 9, 2, 5, 2, 5, 10, 2, 7, 5, 4, 1, 1, 0, 8, 9, 0]);

r = array2d(1..H, 1..T, [2, 3, 3, 1, 3, 2, 0, 1, 3, 1]);
